(declare-fun bvlambda_47_ () (_ BitVec 1))
(declare-fun a186 () (Array (_ BitVec 1) (_ BitVec 12)))
(assert
(let (($e21 (_ bv0 12)))
(let (($e711 (store a186 (not false) $e21)))
(let (($e1032 (select $e711 (not   bvlambda_47_))))
              (   extract      $e1032)
                                                                                                                                                                                                                                                                                                                                                                                                                                                                                                                                                                                                                                                                                                                                                                                                                                                                                                                                                                                                                                                                                                                                                                                                                                                                                                                                                                                                                                                                                                                                                                                                                                                                                                                                                                                                                                                                                                                                                                                                                                                                                        )                                                                                                                                                                                                                                                                                                                                )                                                                                                                                                                                                                                                                                                                                                                                                                                                                                                                                                                                                                                                   )                    )
